%%%mzn-stat: initTime=0.005642844
%%%mzn-stat: objective=388
%%%mzn-stat: nodes=15175
%%%mzn-stat: restarts=2
%%%mzn-stat: peakDepth=144
%%%mzn-stat: solveTime=1.9493312999999999
%%%mzn-stat: variables=504
%%%mzn-stat: propagators=545
%%%mzn-stat: failures=10090
%%%mzn-stat: propagations=1105733
%%%mzn-stat: nogoods=10090
%%%mzn-stat: AverageConflictSize=20.578493557978195
%%%mzn-stat: NumUnitNogoodsLearned=383
%%%mzn-stat: AverageLearnedNogoodLength=53.56808721506442
%%%mzn-stat: AverageBacktrackAmount=0
%%%mzn-stat: AverageLbd=11.349256689791874
%%%mzn-stat-end
maxleg = 388;
succ = array1d(1..20,[11, 16, 19, 10, 4, 3, 17, 14, 6, 12, 5, 2, 1, 9, 13, 7, 8, 20, 18, 15]);
% time elapsed: 2.20 s
----------
==========
% time elapsed: 23.91 s
%%%mzn-stat: initTime=0.005642844
%%%mzn-stat: objective=388
%%%mzn-stat: nodes=101133
%%%mzn-stat: restarts=369
%%%mzn-stat: peakDepth=144
%%%mzn-stat: solveTime=23.674543502
%%%mzn-stat: variables=504
%%%mzn-stat: propagators=545
%%%mzn-stat: failures=72592
%%%mzn-stat: propagations=6788165
%%%mzn-stat: nogoods=72592
%%%mzn-stat: AverageConflictSize=34.33459609874366
%%%mzn-stat: NumUnitNogoodsLearned=384
%%%mzn-stat: AverageLearnedNogoodLength=67.86302898391007
%%%mzn-stat: AverageBacktrackAmount=0
%%%mzn-stat: AverageLbd=13.870343839541547
%%%mzn-stat-end
